p cnf 60 435 
 1 16 31 46 0 
 2 17 32 47 0 
 3 18 33 48 0 
 4 19 34 49 0 
 5 20 35 50 0 
 6 21 36 51 0 
 7 22 37 52 0 
 8 23 38 53 0 
 9 24 39 54 0 
 10 25 40 55 0 
 11 26 41 56 0 
 12 27 42 57 0 
 13 28 43 58 0 
 14 29 44 59 0 
 15 30 45 60 0 
 -1 -2 0 
 -1 -3 0 
 -1 -4 0 
 -1 -5 0 
 -1 -6 0 
 -1 -7 0 
 -1 -8 0 
 -1 -9 0 
 -1 -10 0 
 -1 -11 0 
 -1 -12 0 
 -1 -13 0 
 -1 -14 0 
 -1 -15 0 
 -2 -3 0 
 -2 -4 0 
 -2 -5 0 
 -2 -6 0 
 -2 -7 0 
 -2 -8 0 
 -2 -9 0 
 -2 -10 0 
 -2 -11 0 
 -2 -12 0 
 -2 -13 0 
 -2 -14 0 
 -2 -15 0 
 -3 -4 0 
 -3 -5 0 
 -3 -6 0 
 -3 -7 0 
 -3 -8 0 
 -3 -9 0 
 -3 -10 0 
 -3 -11 0 
 -3 -12 0 
 -3 -13 0 
 -3 -14 0 
 -3 -15 0 
 -4 -5 0 
 -4 -6 0 
 -4 -7 0 
 -4 -8 0 
 -4 -9 0 
 -4 -10 0 
 -4 -11 0 
 -4 -12 0 
 -4 -13 0 
 -4 -14 0 
 -4 -15 0 
 -5 -6 0 
 -5 -7 0 
 -5 -8 0 
 -5 -9 0 
 -5 -10 0 
 -5 -11 0 
 -5 -12 0 
 -5 -13 0 
 -5 -14 0 
 -5 -15 0 
 -6 -7 0 
 -6 -8 0 
 -6 -9 0 
 -6 -10 0 
 -6 -11 0 
 -6 -12 0 
 -6 -13 0 
 -6 -14 0 
 -6 -15 0 
 -7 -8 0 
 -7 -9 0 
 -7 -10 0 
 -7 -11 0 
 -7 -12 0 
 -7 -13 0 
 -7 -14 0 
 -7 -15 0 
 -8 -9 0 
 -8 -10 0 
 -8 -11 0 
 -8 -12 0 
 -8 -13 0 
 -8 -14 0 
 -8 -15 0 
 -9 -10 0 
 -9 -11 0 
 -9 -12 0 
 -9 -13 0 
 -9 -14 0 
 -9 -15 0 
 -10 -11 0 
 -10 -12 0 
 -10 -13 0 
 -10 -14 0 
 -10 -15 0 
 -11 -12 0 
 -11 -13 0 
 -11 -14 0 
 -11 -15 0 
 -12 -13 0 
 -12 -14 0 
 -12 -15 0 
 -13 -14 0 
 -13 -15 0 
 -14 -15 0 
 -16 -17 0 
 -16 -18 0 
 -16 -19 0 
 -16 -20 0 
 -16 -21 0 
 -16 -22 0 
 -16 -23 0 
 -16 -24 0 
 -16 -25 0 
 -16 -26 0 
 -16 -27 0 
 -16 -28 0 
 -16 -29 0 
 -16 -30 0 
 -17 -18 0 
 -17 -19 0 
 -17 -20 0 
 -17 -21 0 
 -17 -22 0 
 -17 -23 0 
 -17 -24 0 
 -17 -25 0 
 -17 -26 0 
 -17 -27 0 
 -17 -28 0 
 -17 -29 0 
 -17 -30 0 
 -18 -19 0 
 -18 -20 0 
 -18 -21 0 
 -18 -22 0 
 -18 -23 0 
 -18 -24 0 
 -18 -25 0 
 -18 -26 0 
 -18 -27 0 
 -18 -28 0 
 -18 -29 0 
 -18 -30 0 
 -19 -20 0 
 -19 -21 0 
 -19 -22 0 
 -19 -23 0 
 -19 -24 0 
 -19 -25 0 
 -19 -26 0 
 -19 -27 0 
 -19 -28 0 
 -19 -29 0 
 -19 -30 0 
 -20 -21 0 
 -20 -22 0 
 -20 -23 0 
 -20 -24 0 
 -20 -25 0 
 -20 -26 0 
 -20 -27 0 
 -20 -28 0 
 -20 -29 0 
 -20 -30 0 
 -21 -22 0 
 -21 -23 0 
 -21 -24 0 
 -21 -25 0 
 -21 -26 0 
 -21 -27 0 
 -21 -28 0 
 -21 -29 0 
 -21 -30 0 
 -22 -23 0 
 -22 -24 0 
 -22 -25 0 
 -22 -26 0 
 -22 -27 0 
 -22 -28 0 
 -22 -29 0 
 -22 -30 0 
 -23 -24 0 
 -23 -25 0 
 -23 -26 0 
 -23 -27 0 
 -23 -28 0 
 -23 -29 0 
 -23 -30 0 
 -24 -25 0 
 -24 -26 0 
 -24 -27 0 
 -24 -28 0 
 -24 -29 0 
 -24 -30 0 
 -25 -26 0 
 -25 -27 0 
 -25 -28 0 
 -25 -29 0 
 -25 -30 0 
 -26 -27 0 
 -26 -28 0 
 -26 -29 0 
 -26 -30 0 
 -27 -28 0 
 -27 -29 0 
 -27 -30 0 
 -28 -29 0 
 -28 -30 0 
 -29 -30 0 
 -31 -32 0 
 -31 -33 0 
 -31 -34 0 
 -31 -35 0 
 -31 -36 0 
 -31 -37 0 
 -31 -38 0 
 -31 -39 0 
 -31 -40 0 
 -31 -41 0 
 -31 -42 0 
 -31 -43 0 
 -31 -44 0 
 -31 -45 0 
 -32 -33 0 
 -32 -34 0 
 -32 -35 0 
 -32 -36 0 
 -32 -37 0 
 -32 -38 0 
 -32 -39 0 
 -32 -40 0 
 -32 -41 0 
 -32 -42 0 
 -32 -43 0 
 -32 -44 0 
 -32 -45 0 
 -33 -34 0 
 -33 -35 0 
 -33 -36 0 
 -33 -37 0 
 -33 -38 0 
 -33 -39 0 
 -33 -40 0 
 -33 -41 0 
 -33 -42 0 
 -33 -43 0 
 -33 -44 0 
 -33 -45 0 
 -34 -35 0 
 -34 -36 0 
 -34 -37 0 
 -34 -38 0 
 -34 -39 0 
 -34 -40 0 
 -34 -41 0 
 -34 -42 0 
 -34 -43 0 
 -34 -44 0 
 -34 -45 0 
 -35 -36 0 
 -35 -37 0 
 -35 -38 0 
 -35 -39 0 
 -35 -40 0 
 -35 -41 0 
 -35 -42 0 
 -35 -43 0 
 -35 -44 0 
 -35 -45 0 
 -36 -37 0 
 -36 -38 0 
 -36 -39 0 
 -36 -40 0 
 -36 -41 0 
 -36 -42 0 
 -36 -43 0 
 -36 -44 0 
 -36 -45 0 
 -37 -38 0 
 -37 -39 0 
 -37 -40 0 
 -37 -41 0 
 -37 -42 0 
 -37 -43 0 
 -37 -44 0 
 -37 -45 0 
 -38 -39 0 
 -38 -40 0 
 -38 -41 0 
 -38 -42 0 
 -38 -43 0 
 -38 -44 0 
 -38 -45 0 
 -39 -40 0 
 -39 -41 0 
 -39 -42 0 
 -39 -43 0 
 -39 -44 0 
 -39 -45 0 
 -40 -41 0 
 -40 -42 0 
 -40 -43 0 
 -40 -44 0 
 -40 -45 0 
 -41 -42 0 
 -41 -43 0 
 -41 -44 0 
 -41 -45 0 
 -42 -43 0 
 -42 -44 0 
 -42 -45 0 
 -43 -44 0 
 -43 -45 0 
 -44 -45 0 
 -46 -47 0 
 -46 -48 0 
 -46 -49 0 
 -46 -50 0 
 -46 -51 0 
 -46 -52 0 
 -46 -53 0 
 -46 -54 0 
 -46 -55 0 
 -46 -56 0 
 -46 -57 0 
 -46 -58 0 
 -46 -59 0 
 -46 -60 0 
 -47 -48 0 
 -47 -49 0 
 -47 -50 0 
 -47 -51 0 
 -47 -52 0 
 -47 -53 0 
 -47 -54 0 
 -47 -55 0 
 -47 -56 0 
 -47 -57 0 
 -47 -58 0 
 -47 -59 0 
 -47 -60 0 
 -48 -49 0 
 -48 -50 0 
 -48 -51 0 
 -48 -52 0 
 -48 -53 0 
 -48 -54 0 
 -48 -55 0 
 -48 -56 0 
 -48 -57 0 
 -48 -58 0 
 -48 -59 0 
 -48 -60 0 
 -49 -50 0 
 -49 -51 0 
 -49 -52 0 
 -49 -53 0 
 -49 -54 0 
 -49 -55 0 
 -49 -56 0 
 -49 -57 0 
 -49 -58 0 
 -49 -59 0 
 -49 -60 0 
 -50 -51 0 
 -50 -52 0 
 -50 -53 0 
 -50 -54 0 
 -50 -55 0 
 -50 -56 0 
 -50 -57 0 
 -50 -58 0 
 -50 -59 0 
 -50 -60 0 
 -51 -52 0 
 -51 -53 0 
 -51 -54 0 
 -51 -55 0 
 -51 -56 0 
 -51 -57 0 
 -51 -58 0 
 -51 -59 0 
 -51 -60 0 
 -52 -53 0 
 -52 -54 0 
 -52 -55 0 
 -52 -56 0 
 -52 -57 0 
 -52 -58 0 
 -52 -59 0 
 -52 -60 0 
 -53 -54 0 
 -53 -55 0 
 -53 -56 0 
 -53 -57 0 
 -53 -58 0 
 -53 -59 0 
 -53 -60 0 
 -54 -55 0 
 -54 -56 0 
 -54 -57 0 
 -54 -58 0 
 -54 -59 0 
 -54 -60 0 
 -55 -56 0 
 -55 -57 0 
 -55 -58 0 
 -55 -59 0 
 -55 -60 0 
 -56 -57 0 
 -56 -58 0 
 -56 -59 0 
 -56 -60 0 
 -57 -58 0 
 -57 -59 0 
 -57 -60 0 
 -58 -59 0 
 -58 -60 0 
 -59 -60 0 
